164
0 120 117 18 142 138 122 31 102 125 
105 153 50 56 108 5 17 93 25 53 
88 4 80 20 143 127 100 131 47 76 
84 60 154 65 149 74 35 140 49 141 
91 136 113 48 130 12 67 7 111 98 
114 11 70 8 92 19 104 132 78 128 
24 160 115 57 38 137 43 81 121 146 
119 79 126 157 75 15 32 133 96 77 
44 69 58 90 22 83 152 52 64 89 
163 10 37 145 139 99 55 110 27 73 
63 62 2 86 94 162 26 116 148 40 
134 82 123 23 144 109 66 9 29 150 
101 16 13 46 1 51 156 34 155 68 
54 135 30 159 106 61 28 3 72 85 
59 87 103 107 147 39 129 36 151 21 
42 41 118 97 71 158 6 45 14 112 
95 33 161 124 
